problems/GracefulWheelGraphs/GracefulWheelGraphs-models/noch/O0/minion/model-n10-solution000001.eprime-solution
language ESSENCE' 1.0

letting colouring_Function1D be [0, 1, 3, 6, 2, 15, 4, 14, 5, 12, 20; int(0..10)]
letting edgeID_Function1D be [1, 2, 3, 4, 13, 11, 10, 9, 7, 12, 20, 19, 17, 14, 18, 5, 16, 6, 15, 8; int(0..19)]
