problems/GracefulWheelGraphs/GracefulWheelGraphs-models/noch/O0/minion/model-n10-solution000001.solution
language Essence 1.3

letting colouring be
        function(0 --> 0, 1 --> 1, 2 --> 3, 3 --> 6, 4 --> 2, 5 --> 15, 6 --> 4, 7 --> 14, 8 --> 5, 9 --> 12, 10 --> 20)
letting edgeID be
        function(0 --> 1, 1 --> 2, 2 --> 3, 3 --> 4, 4 --> 13, 5 --> 11, 6 --> 10, 7 --> 9, 8 --> 7, 9 --> 12,
                 10 --> 20, 11 --> 19, 12 --> 17, 13 --> 14, 14 --> 18, 15 --> 5, 16 --> 16, 17 --> 6, 18 --> 15,
                 19 --> 8)
